c File: flat50_3_0.col
c
c SOURCE: Joseph Culberson (joe@cs.ualberta.ca)
c DESCRIPTION: Quasi-random coloring problem
c              generated with flatness = 0
c                             probability = 0.139
c                             known coloring = 3
c                             random seed = 1910
c              Creation Date:  Tue Jun  9 12:20:58 1998
c Maximum degree = 8 Minimum degree = 1
c p edge 50 115
c cnf created by edge2cnf
p cnf 150 545
-1 -2 0
-1 -3 0
-2 -3 0
1 2 3 0
-4 -5 0
-4 -6 0
-5 -6 0
4 5 6 0
-7 -8 0
-7 -9 0
-8 -9 0
7 8 9 0
-10 -11 0
-10 -12 0
-11 -12 0
10 11 12 0
-13 -14 0
-13 -15 0
-14 -15 0
13 14 15 0
-16 -17 0
-16 -18 0
-17 -18 0
16 17 18 0
-19 -20 0
-19 -21 0
-20 -21 0
19 20 21 0
-22 -23 0
-22 -24 0
-23 -24 0
22 23 24 0
-25 -26 0
-25 -27 0
-26 -27 0
25 26 27 0
-28 -29 0
-28 -30 0
-29 -30 0
28 29 30 0
-31 -32 0
-31 -33 0
-32 -33 0
31 32 33 0
-34 -35 0
-34 -36 0
-35 -36 0
34 35 36 0
-37 -38 0
-37 -39 0
-38 -39 0
37 38 39 0
-40 -41 0
-40 -42 0
-41 -42 0
40 41 42 0
-43 -44 0
-43 -45 0
-44 -45 0
43 44 45 0
-46 -47 0
-46 -48 0
-47 -48 0
46 47 48 0
-49 -50 0
-49 -51 0
-50 -51 0
49 50 51 0
-52 -53 0
-52 -54 0
-53 -54 0
52 53 54 0
-55 -56 0
-55 -57 0
-56 -57 0
55 56 57 0
-58 -59 0
-58 -60 0
-59 -60 0
58 59 60 0
-61 -62 0
-61 -63 0
-62 -63 0
61 62 63 0
-64 -65 0
-64 -66 0
-65 -66 0
64 65 66 0
-67 -68 0
-67 -69 0
-68 -69 0
67 68 69 0
-70 -71 0
-70 -72 0
-71 -72 0
70 71 72 0
-73 -74 0
-73 -75 0
-74 -75 0
73 74 75 0
-76 -77 0
-76 -78 0
-77 -78 0
76 77 78 0
-79 -80 0
-79 -81 0
-80 -81 0
79 80 81 0
-82 -83 0
-82 -84 0
-83 -84 0
82 83 84 0
-85 -86 0
-85 -87 0
-86 -87 0
85 86 87 0
-88 -89 0
-88 -90 0
-89 -90 0
88 89 90 0
-91 -92 0
-91 -93 0
-92 -93 0
91 92 93 0
-94 -95 0
-94 -96 0
-95 -96 0
94 95 96 0
-97 -98 0
-97 -99 0
-98 -99 0
97 98 99 0
-100 -101 0
-100 -102 0
-101 -102 0
100 101 102 0
-103 -104 0
-103 -105 0
-104 -105 0
103 104 105 0
-106 -107 0
-106 -108 0
-107 -108 0
106 107 108 0
-109 -110 0
-109 -111 0
-110 -111 0
109 110 111 0
-112 -113 0
-112 -114 0
-113 -114 0
112 113 114 0
-115 -116 0
-115 -117 0
-116 -117 0
115 116 117 0
-118 -119 0
-118 -120 0
-119 -120 0
118 119 120 0
-121 -122 0
-121 -123 0
-122 -123 0
121 122 123 0
-124 -125 0
-124 -126 0
-125 -126 0
124 125 126 0
-127 -128 0
-127 -129 0
-128 -129 0
127 128 129 0
-130 -131 0
-130 -132 0
-131 -132 0
130 131 132 0
-133 -134 0
-133 -135 0
-134 -135 0
133 134 135 0
-136 -137 0
-136 -138 0
-137 -138 0
136 137 138 0
-139 -140 0
-139 -141 0
-140 -141 0
139 140 141 0
-142 -143 0
-142 -144 0
-143 -144 0
142 143 144 0
-145 -146 0
-145 -147 0
-146 -147 0
145 146 147 0
-148 -149 0
-148 -150 0
-149 -150 0
148 149 150 0
-82 -1 0
-83 -2 0
-84 -3 0
-88 -1 0
-89 -2 0
-90 -3 0
-109 -1 0
-110 -2 0
-111 -3 0
-142 -1 0
-143 -2 0
-144 -3 0
-55 -4 0
-56 -5 0
-57 -6 0
-76 -4 0
-77 -5 0
-78 -6 0
-121 -4 0
-122 -5 0
-123 -6 0
-52 -7 0
-53 -8 0
-54 -9 0
-100 -7 0
-101 -8 0
-102 -9 0
-109 -7 0
-110 -8 0
-111 -9 0
-133 -7 0
-134 -8 0
-135 -9 0
-58 -10 0
-59 -11 0
-60 -12 0
-88 -10 0
-89 -11 0
-90 -12 0
-91 -10 0
-92 -11 0
-93 -12 0
-97 -10 0
-98 -11 0
-99 -12 0
-106 -10 0
-107 -11 0
-108 -12 0
-118 -10 0
-119 -11 0
-120 -12 0
-136 -10 0
-137 -11 0
-138 -12 0
-85 -13 0
-86 -14 0
-87 -15 0
-112 -13 0
-113 -14 0
-114 -15 0
-85 -16 0
-86 -17 0
-87 -18 0
-127 -16 0
-128 -17 0
-129 -18 0
-136 -16 0
-137 -17 0
-138 -18 0
-73 -19 0
-74 -20 0
-75 -21 0
-94 -19 0
-95 -20 0
-96 -21 0
-103 -19 0
-104 -20 0
-105 -21 0
-136 -19 0
-137 -20 0
-138 -21 0
-142 -19 0
-143 -20 0
-144 -21 0
-64 -22 0
-65 -23 0
-66 -24 0
-76 -22 0
-77 -23 0
-78 -24 0
-79 -22 0
-80 -23 0
-81 -24 0
-100 -22 0
-101 -23 0
-102 -24 0
-103 -22 0
-104 -23 0
-105 -24 0
-124 -22 0
-125 -23 0
-126 -24 0
-142 -22 0
-143 -23 0
-144 -24 0
-145 -22 0
-146 -23 0
-147 -24 0
-52 -25 0
-53 -26 0
-54 -27 0
-70 -25 0
-71 -26 0
-72 -27 0
-76 -25 0
-77 -26 0
-78 -27 0
-109 -25 0
-110 -26 0
-111 -27 0
-121 -25 0
-122 -26 0
-123 -27 0
-124 -25 0
-125 -26 0
-126 -27 0
-61 -28 0
-62 -29 0
-63 -30 0
-76 -28 0
-77 -29 0
-78 -30 0
-82 -28 0
-83 -29 0
-84 -30 0
-91 -28 0
-92 -29 0
-93 -30 0
-130 -28 0
-131 -29 0
-132 -30 0
-148 -28 0
-149 -29 0
-150 -30 0
-64 -31 0
-65 -32 0
-66 -33 0
-94 -31 0
-95 -32 0
-96 -33 0
-127 -31 0
-128 -32 0
-129 -33 0
-133 -31 0
-134 -32 0
-135 -33 0
-73 -34 0
-74 -35 0
-75 -36 0
-103 -34 0
-104 -35 0
-105 -36 0
-127 -34 0
-128 -35 0
-129 -36 0
-55 -37 0
-56 -38 0
-57 -39 0
-118 -37 0
-119 -38 0
-120 -39 0
-61 -40 0
-62 -41 0
-63 -42 0
-70 -40 0
-71 -41 0
-72 -42 0
-79 -40 0
-80 -41 0
-81 -42 0
-97 -40 0
-98 -41 0
-99 -42 0
-124 -40 0
-125 -41 0
-126 -42 0
-148 -40 0
-149 -41 0
-150 -42 0
-85 -43 0
-86 -44 0
-87 -45 0
-148 -43 0
-149 -44 0
-150 -45 0
-73 -46 0
-74 -47 0
-75 -48 0
-100 -46 0
-101 -47 0
-102 -48 0
-118 -46 0
-119 -47 0
-120 -48 0
-130 -46 0
-131 -47 0
-132 -48 0
-136 -46 0
-137 -47 0
-138 -48 0
-55 -49 0
-56 -50 0
-57 -51 0
-64 -49 0
-65 -50 0
-66 -51 0
-70 -49 0
-71 -50 0
-72 -51 0
-82 -49 0
-83 -50 0
-84 -51 0
-106 -49 0
-107 -50 0
-108 -51 0
-118 -49 0
-119 -50 0
-120 -51 0
-148 -49 0
-149 -50 0
-150 -51 0
-112 -52 0
-113 -53 0
-114 -54 0
-121 -52 0
-122 -53 0
-123 -54 0
-115 -55 0
-116 -56 0
-117 -57 0
-133 -55 0
-134 -56 0
-135 -57 0
-136 -55 0
-137 -56 0
-138 -57 0
-130 -58 0
-131 -59 0
-132 -60 0
-136 -58 0
-137 -59 0
-138 -60 0
-118 -61 0
-119 -62 0
-120 -63 0
-124 -61 0
-125 -62 0
-126 -63 0
-139 -61 0
-140 -62 0
-141 -63 0
-142 -61 0
-143 -62 0
-144 -63 0
-130 -64 0
-131 -65 0
-132 -66 0
-148 -64 0
-149 -65 0
-150 -66 0
-106 -67 0
-107 -68 0
-108 -69 0
-106 -70 0
-107 -71 0
-108 -72 0
-130 -70 0
-131 -71 0
-132 -72 0
-121 -73 0
-122 -74 0
-123 -75 0
-130 -73 0
-131 -74 0
-132 -75 0
-103 -76 0
-104 -77 0
-105 -78 0
-139 -76 0
-140 -77 0
-141 -78 0
-136 -79 0
-137 -80 0
-138 -81 0
-106 -82 0
-107 -83 0
-108 -84 0
-148 -82 0
-149 -83 0
-150 -84 0
-127 -85 0
-128 -86 0
-129 -87 0
-103 -91 0
-104 -92 0
-105 -93 0
-115 -91 0
-116 -92 0
-117 -93 0
-118 -91 0
-119 -92 0
-120 -93 0
-124 -91 0
-125 -92 0
-126 -93 0
-109 -94 0
-110 -95 0
-111 -96 0
-127 -94 0
-128 -95 0
-129 -96 0
-148 -94 0
-149 -95 0
-150 -96 0
-103 -97 0
-104 -98 0
-105 -99 0
-124 -97 0
-125 -98 0
-126 -99 0
-133 -97 0
-134 -98 0
-135 -99 0
-115 -100 0
-116 -101 0
-117 -102 0
-124 -100 0
-125 -101 0
-126 -102 0
-133 -100 0
-134 -101 0
-135 -102 0
-136 -100 0
-137 -101 0
-138 -102 0
